p cnf 32 92
a 1 4 0
e 2 3 5 6 7 8 9 10 11 12 13 14 15 16 17 18 19 20 21 22 23 24 25 26 27 28 29 30 31 32 0
1 -2 -3 0
-1 2 -3 0
1 2 3 0
-1 -2 3 0
3 1 -4 0
-3 -1 -4 0
3 -1 4 0
-3 1 4 0
-7 -5 0
-7 -6 0
5 6 7 0
-8 -4 0
-8 7 0
4 -7 8 0
9 5 0
9 6 0
-5 -6 -9 0
10 -3 0
10 -2 0
3 2 -10 0
-6 -11 -12 0
6 11 -12 0
-6 11 12 0
6 -11 12 0
10 12 -13 0
-10 -12 -13 0
10 -12 13 0
-10 12 13 0
2 -14 -15 0
-2 14 -15 0
2 14 15 0
-2 -14 15 0
-13 15 -16 0
13 -15 -16 0
-13 -15 16 0
13 15 16 0
-18 -11 0
-18 5 0
11 -5 18 0
19 18 0
19 -17 0
-18 17 -19 0
17 -19 -20 0
-17 19 -20 0
17 19 20 0
-17 -19 20 0
21 5 0
21 -6 0
-5 6 -21 0
-22 21 0
-22 -3 0
-21 3 22 0
-20 22 -23 0
20 -22 -23 0
-20 -22 23 0
20 22 23 0
-16 23 -24 0
16 -23 -24 0
-16 -23 24 0
16 23 24 0
25 9 0
25 -24 0
-9 24 -25 0
26 8 0
26 -25 0
-8 25 -26 0
-27 -11 0
-27 -21 0
11 21 27 0
-6 -27 -28 0
6 27 -28 0
-6 27 28 0
6 -27 28 0
-6 -29 -30 0
6 29 -30 0
-6 29 30 0
6 -29 30 0
-31 28 0
-31 30 0
-28 -30 31 0
-32 26 0
-32 31 0
-26 -31 32 0
13 23 6 29 -14 -21 0
15 -5 -2 1 -21 29 -22 0
-15 23 14 -6 0
27 -31 5 -25 3 32 26 12 0
6 1 -18 0
18 2 -14 10 0
19 10 -8 -23 -17 0
-5 -29 -8 -26 -30 -9 -10 0
32 0
